250 200 250
24
200 100 100
200 150 100
100 100 100
100 100 100
10 10 100
50 10 100
100 10 10
100 100 10
200 100 100
200 150 100
100 100 100
100 100 100
10 10 100
50 10 100
100 10 10
100 100 10
200 100 100
200 150 100
100 100 100
100 100 100
10 10 100
50 10 100
100 10 10
100 100 10